qe/outputs/qe/qe_queries_wdomain/T=5,eliminate=[I_0,I_1,I_2,I_3,I_4,C,B,lhs=Q_4].smt2
; benchmark generated from python API
(set-info :status unknown)
(declare-fun S_1 () Real)
(declare-fun S_2 () Real)
(declare-fun S_3 () Real)
(declare-fun A_1 () Real)
(declare-fun L_1 () Real)
(declare-fun A_0 () Real)
(declare-fun L_0 () Real)
(declare-fun S_0 () Real)
(declare-fun S_4 () Real)
(declare-fun L_2 () Real)
(declare-fun A_2 () Real)
(declare-fun A_3 () Real)
(declare-fun L_3 () Real)
(declare-fun L_4 () Real)
(declare-fun A_4 () Real)
(declare-fun Q_4 () Real)
(assert
 (let (($x1476 (>= Q_4 0.0)))
 (let (($x50090 (not (<= 0.0 (+ S_1 L_1 (* (- 1.0) A_1))))))
 (let (($x633 (not (<= 0.0 (+ L_1 S_0 (* (- 1.0) A_0))))))
 (let ((?x754 (* (- 1.0) L_0)))
 (let ((?x763 (* (- 1.0) L_1)))
 (let (($x613 (= ?x763 ?x754)))
 (let ((?x784 (* (- 1.0) A_3)))
 (let ((?x900 (* (- 1.0) A_0)))
 (let ((?x772 (* (- 1.0) L_2)))
 (let (($x10433 (<= (+ A_2 ?x772 ?x900 L_0 ?x763 L_3 A_1 ?x784) 0.0)))
 (let (($x10427 (not $x10433)))
 (let (($x537 (not (<= 0.0 (+ S_3 L_3 ?x784)))))
 (let ((?x781 (* (- 1.0) L_3)))
 (let ((?x816 (* (- 1.0) A_4)))
 (let (($x14244 (<= (+ ?x816 ?x781 A_3 L_4 ?x900 L_0 ?x763 A_1) 0.0)))
 (let (($x2066 (<= Q_4 0.0)))
 (let (($x6670 (not $x2066)))
 (let ((?x1993 (* (- 2.0) A_1)))
 (let ((?x1426 (* 2.0 L_1)))
 (let ((?x20703 (+ A_0 ?x754 ?x1426 ?x772 ?x1993 A_2)))
 (let (($x48955 (<= 0.0 ?x20703)))
 (let (($x48956 (not $x48955)))
 (let ((?x27565 (* (- (/ 1.0 2.0)) S_4)))
 (let ((?x1857 (* (- (/ 1.0 2.0)) A_1)))
 (let (($x34433 (<= (+ (* (/ 3.0 2.0) L_1) ?x1857 ?x27565 S_0 ?x772 ?x900 A_2) 0.0)))
 (let (($x1838 (<= (+ (* (- 1.0) S_4) ?x781 A_3) 0.0)))
 (let ((?x2416 (* 3.0 A_2)))
 (let ((?x21255 (* 3.0 L_1)))
 (let ((?x2417 (* (- 3.0) L_2)))
 (let ((?x3015 (* 3.0 S_0)))
 (let ((?x3896 (* (- 2.0) S_4)))
 (let (($x24906 (<= (+ ?x3896 (* (- 4.0) A_0) L_0 ?x3015 ?x2417 ?x21255 ?x2416) 0.0)))
 (let (($x21788 (<= (+ (* (- 1.0) S_4) A_0 ?x754 ?x21255 ?x2417 (* (- 3.0) A_1) ?x2416) 0.0)))
 (let ((?x1473 (* (- 4.0) A_3)))
 (let ((?x1640 (* (- 4.0) S_1)))
 (let ((?x1326 (* (- 3.0) L_4)))
 (let ((?x14576 (* 5.0 A_0)))
 (let ((?x1389 (* 3.0 A_4)))
 (let ((?x1397 (* (- 3.0) Q_4)))
 (let (($x18292 (<= (+ ?x1397 ?x1389 ?x14576 ?x1326 ?x754 ?x1640 ?x1473) 0.0)))
 (let ((?x1892 (* (- 2.0) A_3)))
 (let ((?x3914 (* 2.0 A_0)))
 (let ((?x1891 (* 2.0 L_3)))
 (let ((?x1414 (* (- 2.0) S_1)))
 (let ((?x1415 (* (- 2.0) L_1)))
 (let ((?x714 (* (- 1.0) L_4)))
 (let ((?x721 (* (- 1.0) Q_4)))
 (let (($x3937 (<= (+ ?x721 A_4 A_2 ?x772 ?x714 ?x1415 ?x1414 ?x1891 ?x3914 ?x1892) 0.0)))
 (let ((?x2236 (* (- 3.0) A_3)))
 (let ((?x1406 (* 3.0 A_0)))
 (let ((?x2235 (* 3.0 L_3)))
 (let ((?x2997 (* (- 3.0) S_1)))
 (let ((?x2188 (* (- 2.0) L_4)))
 (let ((?x1795 (* 2.0 A_4)))
 (let ((?x2961 (* (- 2.0) Q_4)))
 (let ((?x1459 (* (- 4.0) L_1)))
 (let (($x2963 (<= (+ ?x1459 ?x2961 ?x1795 A_1 ?x2188 ?x2997 ?x2235 ?x1406 ?x2236) 0.0)))
 (let (($x673 (= ?x781 ?x772)))
 (let (($x51410 (<= (+ A_2 (* (- 2.0) L_2) A_0 (* (- 1.0) S_1) L_3 ?x784) (- 5.0))))
 (let (($x51408 (not (<= (+ A_2 ?x772 A_0 (* (- 1.0) S_1) ?x784) (- 5.0)))))
 (let (($x50853 (<= (+ ?x1415 A_1 (* (- 1.0) S_1) L_3 A_0 ?x784) (- 10.0))))
 (let (($x49569 (<= (+ ?x3914 ?x754 (* (- 1.0) S_1) L_3 ?x763 ?x784) (- 15.0))))
 (let (($x51397 (<= (+ L_1 (* (- 1.0) A_1) ?x754 A_0) (- 5.0))))
 (let ((?x1472 (* 4.0 L_3)))
 (let ((?x1599 (* (- 4.0) L_2)))
 (let (($x115892 (or $x2963 $x3937 (<= (+ ?x1397 ?x1389 ?x14576 ?x1326 ?x754 ?x1640 ?x1599 ?x1472 ?x1473) 0.0) (not $x18292))))
 (let (($x24838 (<= (+ (* (- (/ 2.0 3.0)) S_4) (* (- (/ 1.0 3.0)) A_0) (* (/ 1.0 3.0) L_0) S_2) 0.0)))
 (let ((?x38465 (* (- (/ 1.0 2.0)) A_2)))
 (let ((?x38795 (* (/ 1.0 2.0) L_2)))
 (let ((?x25853 (* (- (/ 1.0 2.0)) L_0)))
 (let ((?x25127 (* (/ 1.0 2.0) A_0)))
 (let (($x111318 (or $x673 $x49569 $x50853 (<= (+ A_2 ?x772 ?x714 A_0 (* (- 1.0) S_1) L_3 ?x784) (- 5.0)))))
 (let ((?x23967 (* 3.0 S_1)))
 (let ((?x2244 (* 2.0 L_0)))
 (let ((?x3906 (* (- 2.0) A_0)))
 (let ((?x1661 (* (- 1.0) S_4)))
 (let (($x115797 (or $x1838 (<= (+ ?x1661 ?x3906 ?x2244 ?x23967) 0.0) (<= (+ A_2 ?x772 ?x1661 ?x900 L_0 S_1) 0.0))))
 (let ((?x775 (* (- 1.0) A_2)))
 (let ((?x1862 (* (- 1.0) S_1)))
 (let (($x20330 (<= (+ ?x2961 ?x1795 ?x1891 ?x1892 ?x2188 ?x3914 ?x754 ?x1862 ?x763 L_2 ?x775) 0.0)))
 (let (($x7735 (<= (+ ?x721 A_4 L_3 ?x784 ?x714 ?x1415 A_1 ?x1862 L_2 A_0 ?x775) 0.0)))
 (let (($x677 (= ?x772 ?x763)))
 (let (($x44910 (not (<= (+ ?x763 A_1 L_0 ?x900) 5.0))))
 (let (($x21238 (not (<= ?x20703 0.0))))
 (let (($x115063 (or $x677 (<= (+ ?x1415 A_1 ?x1862 L_2 A_0 ?x775) (- 5.0)) (<= (+ ?x3914 ?x754 ?x1862 L_2 ?x763 ?x775) (- 10.0)))))
 (let (($x555 (not (<= (+ A_2 ?x772 L_1 (* (- 1.0) A_1)) 5.0))))
 (let ((?x2477 (* (- 3.0) A_2)))
 (let ((?x2243 (* 3.0 A_1)))
 (let ((?x2478 (* 3.0 L_2)))
 (let ((?x21324 (* (- 3.0) L_1)))
 (let ((?x1417 (* (- 2.0) A_2)))
 (let ((?x1890 (* 2.0 A_1)))
 (let ((?x1416 (* 2.0 L_2)))
 (let (($x8017 (<= (+ ?x775 L_2 A_0 ?x754 L_1 ?x781 (* (- 1.0) A_1) A_3) 0.0)))
 (let (($x49653 (not (<= 0.0 (+ S_2 L_2 ?x775)))))
 (let ((?x1804 (* (/ 1.0 2.0) A_3)))
 (let ((?x1806 (* (- (/ 1.0 2.0)) L_3)))
 (let ((?x1840 (* (/ 1.0 2.0) A_1)))
 (let ((?x1816 (* (- (/ 1.0 2.0)) L_1)))
 (let (($x1907 (<= (+ ?x1816 ?x1840 L_2 ?x1806 ?x775 ?x1804) 0.0)))
 (let ((?x13593 (+ ?x763 A_1 ?x781 ?x1416 ?x1417 A_3)))
 (let (($x47524 (<= 0.0 ?x13593)))
 (let (($x47525 (not $x47524)))
 (let (($x45254 (not (<= (- 5.0) (+ A_2 ?x772 L_3 ?x784)))))
 (let (($x611 (<= (+ ?x1816 ?x1840 (* (/ 1.0 2.0) L_3) (* (- (/ 1.0 2.0)) A_3)) (- 5.0))))
 (let (($x13572 (not (<= ?x13593 0.0))))
 (let (($x2227 (<= (+ ?x1426 (* (- 1.0) A_1) S_0 ?x781 ?x900 (* 2.0 A_2) ?x784) 0.0)))
 (let (($x37123 (<= (+ ?x25127 (* (/ 1.0 2.0) L_0) (* (/ 3.0 2.0) S_2) ?x1862 ?x784) 0.0)))
 (let (($x28149 (<= (+ ?x25127 (* (/ 1.0 2.0) L_0) (* (/ 3.0 2.0) S_2) ?x1862 L_3 ?x763 ?x784) 0.0)))
 (let (($x23682 (<= (+ ?x763 S_2 ?x1862 L_2 A_0 ?x775) 0.0)))
 (let ((?x1994 (* 2.0 A_3)))
 (let ((?x1995 (* (- 2.0) L_3)))
 (let ((?x1425 (* 2.0 S_0)))
 (let ((?x2418 (* (- 3.0) S_3)))
 (let (($x29333 (<= (+ ?x900 ?x754 ?x2418 ?x1425 ?x1995 ?x1426 ?x1994) 0.0)))
 (let (($x26375 (<= (+ A_0 ?x754 (* (- 1.0) S_3) ?x781 L_1 (* (- 1.0) A_1) A_3) 0.0)))
 (let (($x23466 (<= (+ ?x1415 ?x1890 (* (- 1.0) S_3) L_0 ?x900) 0.0)))
 (let (($x2332 (<= (+ A_2 ?x772 (* (- 1.0) S_3)) 0.0)))
 (let ((?x2303 (* 2.0 L_4)))
 (let ((?x2967 (* (- 2.0) A_4)))
 (let ((?x2984 (* 2.0 Q_4)))
 (let (($x7439 (not (<= (+ ?x2984 ?x2967 ?x1995 ?x1994 ?x2303 A_2 ?x772 L_0 ?x900) 0.0))))
 (let (($x6948 (<= (+ ?x816 ?x781 A_3 L_4 L_1 (* (- 1.0) A_1) ?x772 A_2) 0.0)))
 (let (($x29004 (<= (+ (* (- (/ 1.0 3.0)) S_4) (* (- (/ 2.0 3.0)) A_0) (* (/ 2.0 3.0) L_0) S_1) 0.0)))
 (let (($x52736 (or $x1838 (not (<= (+ ?x900 L_0 (* 2.0 S_1) L_2 ?x775) 0.0)) $x29004)))
 (let (($x27357 (<= (+ (* (/ 4.0 3.0) A_0) (* (- (/ 4.0 3.0)) L_0) (* (/ 2.0 3.0) S_3) ?x1426 ?x1993) 0.0)))
 (let (($x3034 (<= (+ L_1 ?x721 A_4 (* (- 1.0) A_1) ?x714 ?x2235 ?x2417 ?x2416 ?x2236) 0.0)))
 (let (($x53589 (or $x613 $x673 (<= (+ ?x3906 L_0 S_0 ?x1891 L_1 ?x2417 ?x2416 ?x1892) 0.0) $x47524)))
 (let (($x22382 (<= (+ ?x1661 A_0 ?x754 (* (- 3.0) L_3) ?x2478 ?x2477 (* 3.0 A_3)) 0.0)))
 (let (($x52528 (or $x677 (<= (+ ?x1415 A_1 ?x1862 ?x781 ?x1416 A_0 ?x1417 A_3) 0.0) (<= (+ ?x3914 ?x754 ?x1862 ?x1995 ?x763 ?x2478 ?x2477 ?x1994) 0.0))))
 (let (($x36691 (<= (+ L_1 (* (- 1.0) A_1) (* 2.0 S_2) ?x1862 A_0 ?x784) 0.0)))
 (let (($x32100 (<= (+ (* (- 1.0) A_1) (* 2.0 S_2) ?x1862 L_3 A_0 ?x784) 0.0)))
 (let (($x112741 (or $x673 $x10433 (<= (+ ?x3906 ?x2244 (* 2.0 S_1) L_3 ?x763 A_1 ?x784) 0.0))))
 (let (($x50781 (or $x2332 (<= (+ ?x763 A_1 (* (- 1.0) S_3)) (- 5.0)) (<= (+ ?x1406 (* (- 3.0) L_0) ?x2418) (- 30.0)))))
 (let (($x26924 (<= (+ ?x775 L_2 (* (- 1.0) S_2) ?x754 S_0 ?x781 L_1 A_3) 0.0)))
 (let (($x1855 (<= (+ ?x763 A_1 (* (- 1.0) S_2)) 0.0)))
 (let (($x14582 (<= (+ ?x721 A_4 ?x900 ?x714 L_0 ?x1599 ?x1472 (* 4.0 A_2) ?x1473) 0.0)))
 (let (($x14578 (<= (+ ?x721 A_4 ?x900 ?x714 L_0 (* 4.0 A_2) ?x1473) 0.0)))
 (let (($x53901 (or (<= (+ ?x900 L_0 S_3 ?x2235 ?x2417 ?x2416 ?x2236) 0.0) (not (<= (+ ?x900 L_0 S_3 ?x2416 ?x2236) 0.0)))))
 (let (($x25633 (<= (+ (* (- 3.0) A_0) (* 3.0 L_0) ?x23967 ?x2416 ?x2236) 0.0)))
 (let (($x113789 (or (<= (+ ?x900 L_0 S_1 L_3 ?x772 A_2 ?x784) 0.0) (not $x25633))))
 (let (($x33904 (<= (+ ?x775 L_2 S_3 ?x3914 ?x754 ?x1862 (* (- 1.0) A_1)) 0.0)))
 (let (($x27264 (<= (+ (* (/ 4.0 3.0) A_0) (* (- (/ 1.0 3.0)) L_0) (* (/ 2.0 3.0) S_3) ?x1862 ?x775) 0.0)))
 (let (($x27479 (not $x27264)))
 (let ((?x27262 (* (/ 2.0 3.0) S_3)))
 (let ((?x27286 (* (- (/ 1.0 3.0)) L_0)))
 (let ((?x27259 (* (/ 4.0 3.0) A_0)))
 (let (($x54908 (or (<= (+ ?x27259 ?x27286 ?x27262 ?x1862 L_2 ?x763 ?x775) 0.0) $x27479 (not $x33904))))
 (let (($x111889 (or $x677 (not $x27357) (<= (+ ?x27259 ?x27286 ?x714 ?x27262 ?x1862 L_2 ?x775) 0.0))))
 (let ((?x1428 (* 2.0 A_2)))
 (let ((?x1427 (* (- 2.0) L_2)))
 (let ((?x766 (* (- 1.0) A_1)))
 (let (($x111492 (or $x613 (not $x2227) (<= (+ ?x1426 ?x766 S_0 L_3 ?x1427 ?x900 ?x1428 ?x784) 0.0) $x8017)))
 (let (($x33840 (or $x1855 (<= (+ ?x775 L_2 S_3 A_0 (* (- 1.0) S_2) ?x754) 0.0))))
 (let (($x50299 (or $x1838 (<= (+ A_2 ?x772 ?x1661) (- 5.0)) (<= (+ ?x1661 A_0 ?x754) (- 15.0)) (<= (+ ?x1816 ?x1840 ?x27565) (- 5.0)))))
 (let ((?x3953 (+ ?x721 A_4 A_2 ?x772 ?x714 ?x1891 ?x1892)))
 (let (($x45302 (<= 0.0 ?x3953)))
 (let (($x45303 (not $x45302)))
 (let (($x55577 (or $x677 $x8017 (<= (+ ?x763 A_1 (* (- 1.0) S_3) ?x781 L_2 ?x775 A_3) 0.0))))
 (let (($x21773 (<= (+ A_0 ?x754 (* (- 1.0) S_3) ?x1426 ?x1427 ?x1993 ?x1428) 0.0)))
 (let (($x112049 (or $x613 (<= (+ A_1 (* (- 2.0) S_3) S_0 ?x781 ?x900 A_3) 0.0) $x2332 $x21773 $x29333)))
 (let (($x50105 (or $x613 $x21773 (<= (+ L_1 (* (- 1.0) S_3) S_0 ?x772 ?x900 A_2) 0.0))))
 (let (($x29291 (<= (+ A_0 (* (- 2.0) L_0) (* (- 3.0) S_2) S_0 ?x781 L_1 A_3) 0.0)))
 (let (($x26318 (<= (+ ?x3914 (* (- 2.0) L_0) (* (- 2.0) S_2) ?x781 L_1 ?x766 A_3) 0.0)))
 (let (($x59995 (or $x10433 (not (<= (+ ?x3906 ?x2244 (* 2.0 S_3) ?x2243 ?x2236) 0.0)) (<= (+ ?x3906 ?x2244 (* 2.0 S_3) ?x2235 ?x2417 ?x2243 ?x2236) 0.0))))
 (let ((?x3017 (* 3.0 A_3)))
 (let ((?x2265 (* (- 3.0) A_1)))
 (let ((?x3016 (* (- 3.0) L_3)))
 (let ((?x2266 (* (- 2.0) L_0)))
 (let (($x2220 (<= (+ L_1 ?x1661 S_0 ?x781 ?x900 A_3) 0.0)))
 (let (($x25594 (<= (+ (* (- 3.0) A_0) (* 3.0 L_0) ?x2418 (* 6.0 S_1)) 0.0)))
 (let (($x111413 (or $x677 (<= (+ A_0 ?x754 (* (- 1.0) S_3) ?x1995 ?x1416 ?x1417 ?x1994) 0.0) $x23466)))
 (let (($x114855 (or $x677 $x1855 (<= (+ A_0 ?x754 (* (- 1.0) S_2) ?x781 L_2 ?x775 A_3) 0.0))))
 (let (($x55802 (or $x613 $x1855 (<= (+ A_0 ?x754 (* (- 1.0) S_2) L_1 ?x772 ?x766 A_2) 0.0) (<= (+ ?x754 (* (- 2.0) S_2) S_0 ?x772 L_1 A_2) 0.0))))
 (let (($x25914 (or $x1855 (<= (+ ?x27259 (* (- (/ 4.0 3.0)) L_0) ?x27262 (* (- 2.0) S_2)) 0.0))))
 (let (($x19167 (<= (+ ?x721 ?x816 A_2 ?x772 L_4 ?x3906 ?x2244 ?x1415 ?x1890) 0.0)))
 (let ((?x1443 (* 4.0 A_1)))
 (let ((?x1421 (* 3.0 L_0)))
 (let ((?x1420 (* (- 3.0) A_0)))
 (let (($x1475 (<= (+ ?x1397 ?x1389 A_0 ?x1326 ?x754 ?x1472 ?x1473) 0.0)))
 (let (($x1387 (not $x1475)))
 (let (($x55485 (or $x1387 (<= (+ ?x1397 ?x816 ?x1420 L_4 ?x1421 (* (- 4.0) L_3) ?x1443) 0.0) (not (<= (+ ?x1397 ?x816 ?x1420 ?x1326 ?x1421 ?x1443) 0.0)) $x19167)))
 (let (($x111986 (or $x1475 (<= (+ ?x816 ?x1995 A_3 L_4 ?x900 L_0 A_1) 0.0) (not (<= (+ ?x816 ?x781 A_3 ?x900 L_0 A_1) 0.0)) $x19167)))
 (let (($x14647 (<= (+ ?x816 ?x781 A_3 ?x900 L_0 A_1) 0.0)))
 (let (($x663 (= ?x714 ?x781)))
 (let ((?x1470 (+ ?x721 A_4 A_0 ?x714 ?x754 ?x1416 ?x1417)))
 (let (($x559 (<= 0.0 ?x1470)))
 (let (($x557 (not $x559)))
 (let (($x7978 (<= (+ Q_4 ?x816 A_2 ?x772 L_4 ?x3906 ?x2244 (* 2.0 S_1)) 0.0)))
 (let (($x113737 (or $x1475 $x2066 $x7978 (<= (+ Q_4 ?x816 ?x781 A_3 L_4 ?x900 L_0 S_1) 0.0))))
 (let ((?x8000 (+ Q_4 A_4 ?x775 L_2 ?x714 ?x3914 ?x2266 ?x1426 ?x1993)))
 (let (($x8010 (<= ?x8000 0.0)))
 (let (($x6141 (<= (+ Q_4 L_1 S_0 ?x900) 0.0)))
 (let (($x3895 (<= (+ Q_4 ?x816 ?x775 L_2 L_4 ?x1426 ?x1425 ?x1995 ?x3906 ?x1994) 0.0)))
 (let (($x8984 (<= (+ ?x1397 ?x816 ?x1420 L_4 ?x1421 ?x1459 ?x1443) 0.0)))
 (let ((?x1447 (* 4.0 A_3)))
 (let ((?x1451 (* (- 4.0) L_3)))
 (let ((?x1466 (* 4.0 L_1)))
 (let ((?x1402 (* 3.0 L_4)))
 (let ((?x1401 (* (- 3.0) A_4)))
 (let ((?x1400 (* 3.0 Q_4)))
 (let ((?x14522 (+ ?x1400 ?x1401 (* (- 5.0) A_0) ?x1402 L_0 (* 4.0 S_0) ?x1466 ?x1451 ?x1447)))
 (let (($x14549 (<= ?x14522 0.0)))
 (let (($x116641 (or $x613 $x2066 (<= (+ Q_4 ?x816 A_0 L_4 ?x754 ?x1426 ?x1995 ?x1993 ?x1994) 0.0) $x14549)))
 (let ((?x1444 (* (- 4.0) A_2)))
 (let ((?x1442 (* 4.0 L_2)))
 (let (($x1461 (<= (+ ?x721 A_4 ?x900 ?x714 L_0 ?x1459 ?x1442 ?x1443 ?x1444) 0.0)))
 (let (($x4688 (<= (+ (* (- 5.0) L_1) ?x721 A_4 ?x1890 ?x714 ?x2997 ?x2478 ?x1406 ?x2477) 0.0)))
 (let (($x57042 (or $x677 (<= (+ ?x721 A_4 ?x1406 ?x714 ?x754 ?x1414 ?x1415 ?x1416 ?x1417) 0.0) $x4688)))
 (let (($x7491 (<= (+ Q_4 ?x816 ?x781 A_3 L_4 A_2 ?x772 L_1 ?x766) 0.0)))
 (let (($x1430 (<= (+ Q_4 ?x816 ?x1420 L_4 L_0 ?x1425 ?x1426 ?x1427 ?x1428) 0.0)))
 (let (($x54169 (or $x613 $x1387 $x1430 $x2066 (not (<= (+ ?x1400 ?x1401 ?x1451 ?x1447 ?x1402 L_0 ?x900) 0.0)) $x7491)))
 (let ((?x1598 (* 4.0 A_2)))
 (let ((?x1467 (* (- 4.0) A_1)))
 (let (($x7060 (<= (+ ?x1400 ?x1401 ?x1451 ?x1447 ?x1402 L_0 ?x900) 0.0)))
 (let (($x55014 (or $x613 $x1430 $x2066 $x7060 (<= (+ Q_4 ?x816 A_0 L_4 ?x754 ?x1466 ?x1599 ?x1467 ?x1598) 0.0))))
 (let (($x13145 (<= (+ A_4 L_3 ?x784 ?x714 A_0 ?x754 L_1 ?x766) 0.0)))
 (let (($x7030 (<= (+ Q_4 ?x816 ?x781 A_3 ?x1426 ?x766 S_0 ?x900 A_2) 0.0)))
 (let (($x3042 (<= (+ ?x1459 Q_4 ?x816 ?x1443 L_4 ?x1421 ?x1420) 0.0)))
 (let (($x52938 (or (<= (+ ?x721 A_4 L_3 ?x784 ?x714 ?x763 A_1 L_2 ?x775) 0.0) (not (<= (+ ?x721 A_4 L_3 ?x784 ?x714 A_1 ?x775) 0.0)))))
 (let (($x20319 (<= (+ ?x2984 ?x2967 ?x1995 ?x1994 ?x2303 ?x3906 L_0 S_0 L_1 ?x772 A_2) 0.0)))
 (let (($x8980 (<= (+ ?x721 ?x816 ?x900 L_4 L_0 ?x1427 ?x1428) 0.0)))
 (let (($x53195 (or $x663 $x8980 (<= (+ Q_4 ?x2967 ?x1995 ?x1994 ?x2303 ?x900 L_0 ?x772 A_2) 0.0))))
 (let (($x4692 (<= (+ ?x763 Q_4 ?x816 A_1 L_4 ?x2478 ?x3016 ?x2477 ?x3017) 0.0)))
 (let (($x2952 (not $x3042)))
 (let (($x6648 (<= (+ ?x1400 A_4 ?x1406 ?x714 (* (- 3.0) L_0) ?x1466 ?x1467) 0.0)))
 (let (($x55796 (or $x677 (<= (+ ?x763 A_1 A_4 ?x714 L_2 L_3 ?x775 ?x784) 0.0) (<= (+ ?x721 ?x1795 ?x1891 ?x1892 ?x2188 A_0 ?x754 L_2 ?x775) 0.0))))
 (let (($x56026 (or $x677 (<= (+ Q_4 ?x816 A_0 L_4 ?x754 ?x1442 ?x1451 ?x1444 ?x1447) 0.0) $x2066 $x3042)))
 (let (($x4614 (<= (+ (* 5.0 L_1) Q_4 ?x816 ?x1993 L_4 ?x3015 ?x2417 ?x1420 ?x2416) 0.0)))
 (let ((?x3035 (+ ?x763 ?x2961 ?x1795 A_1 ?x2188 ?x2235 ?x2236)))
 (let (($x3036 (<= ?x3035 0.0)))
 (let (($x2982 (not $x3036)))
 (let (($x1469 (<= (+ ?x721 A_4 ?x1406 ?x714 (* (- 3.0) L_0) ?x1466 ?x1467) 0.0)))
 (let (($x57373 (or $x613 $x1469 $x2066 (<= (+ ?x1466 ?x2984 ?x2967 ?x766 ?x2303 ?x3015 ?x3016 ?x1420 ?x3017) 0.0))))
 (let (($x54958 (or $x559 $x673 $x3042 (<= (+ Q_4 ?x1389 A_0 ?x1326 ?x754 ?x1472 ?x1473) 0.0))))
 (let (($x55660 (or $x559 (not (<= (+ ?x721 A_4 ?x900 ?x714 L_0 ?x1890 ?x1892) 0.0)) (<= (+ ?x721 A_4 ?x900 ?x714 L_0 ?x1427 ?x1891 ?x1890 ?x1892) 0.0))))
 (let (($x912 (not (<= (+ ?x721 A_4 ?x900 ?x714 L_0 ?x1442 ?x1451 ?x1443 ?x1444) 0.0))))
 (let (($x3946 (<= (+ Q_4 A_4 A_2 ?x772 ?x714 ?x1891 ?x1892) 0.0)))
 (let (($x3026 (<= (+ ?x763 Q_4 ?x1795 A_1 ?x2188 ?x2235 ?x2236) 0.0)))
 (let (($x3954 (<= ?x3953 0.0)))
 (let (($x57154 (or $x1475 $x2066 (<= (+ ?x2984 ?x2967 ?x1995 ?x1994 ?x2303 ?x900 L_0 S_2) 0.0))))
 (let (($x112283 (or $x1387 (<= (+ Q_4 ?x816 ?x1420 L_4 ?x1421 (* 4.0 S_1)) 0.0) $x2066 $x7978)))
 (let (($x114873 (or (not (<= (+ ?x721 A_4 A_2 ?x772 ?x714 ?x1426 ?x1892) 0.0)) (<= (+ ?x721 A_4 A_2 ?x2417 ?x714 ?x1426 ?x1891 ?x1892) 0.0))))
 (let (($x53992 (or $x677 (<= (+ Q_4 A_4 A_0 ?x714 ?x754 ?x1416 ?x1417) 0.0) (<= (+ ?x1415 ?x2984 A_4 ?x1890 ?x714 ?x2478 ?x2477) 0.0))))
 (let (($x13132 (<= (+ ?x2961 ?x1795 ?x1891 ?x1892 ?x2188 A_0 (* (- 1.0) S_3) ?x754) 0.0)))
 (let (($x7050 (<= (+ ?x721 A_4 L_3 ?x784 ?x714 ?x763 A_1 (* (- 1.0) S_3)) 0.0)))
 (let (($x13130 (<= (+ ?x721 A_4 L_3 ?x784 ?x714 A_0 ?x754 (* (- 1.0) S_2)) 0.0)))
 (let (($x45235 (<= (+ Q_4 ?x816 A_2 ?x772 L_4) (- 10.0))))
 (let (($x45017 (<= (+ ?x763 Q_4 ?x816 A_1 L_4) (- 15.0))))
 (let (($x46362 (or $x1387 $x2066 (<= (+ Q_4 ?x816 A_0 L_4 ?x754) (- 20.0)) $x45017 $x45235)))
 (let (($x110979 (or $x677 $x1469 $x4692 (not (<= (+ ?x1426 ?x2961 ?x816 ?x1993 L_4 ?x2417 ?x2416) 0.0)))))
 (let (($x52818 (or $x2066 (<= (+ L_1 ?x2984 ?x2967 ?x766 ?x2303 (* 3.0 S_3)) 0.0))))
 (let (($x116969 (or (<= (+ ?x1400 ?x1401 ?x900 ?x1402 L_0 (* 4.0 S_3)) 0.0) $x2066)))
 (let (($x8863 (or (<= (+ ?x721 A_4 A_0 ?x714 ?x754 (* (- 2.0) S_3)) 0.0) $x2332 (<= (+ ?x1415 ?x721 A_4 ?x1890 ?x714 ?x2418) 0.0))))
 (let (($x1410 (<= (+ ?x721 A_4 ?x1406 ?x714 (* (- 3.0) L_0) (* (- 4.0) S_2)) 0.0)))
 (let (($x7990 (<= (+ ?x721 A_4 ?x775 L_2 ?x714 ?x3914 (* (- 2.0) S_2) ?x2266) 0.0)))
 (let (($x52939 (or $x3036 (<= (+ ?x816 ?x1995 A_3 L_4 L_1 ?x766 A_2) 0.0) (not (<= (+ ?x816 ?x781 A_3 L_1 ?x766 A_2) 0.0)))))
 (let (($x45864 (or $x1475 $x2066 $x45017 $x45235 (<= (+ Q_4 ?x816 ?x781 A_3 L_4) (- 5.0)))))
 (let (($x2972 (<= (+ ?x1426 Q_4 ?x816 ?x1993 L_4 (* 3.0 S_2)) 0.0)))
 (let (($x54005 (or $x2066 $x3036 (<= (+ Q_4 ?x816 ?x781 A_3 L_4 L_1 ?x766 S_2) 0.0))))
 (let (($x55814 (or $x2066 (<= (+ Q_4 ?x816 ?x775 L_2 L_4 (* 2.0 S_3)) 0.0))))
 (let (($x6679 (or (<= (+ ?x1397 ?x1389 A_0 ?x1326 ?x754 (* (- 4.0) S_4)) 0.0) $x1838 (<= (+ ?x763 ?x2961 ?x1795 A_1 ?x2188 (* (- 3.0) S_4)) 0.0) (<= (+ ?x721 A_4 A_2 ?x772 ?x714 ?x3896) 0.0))))
 (let (($x1777 (= Q_4 0.0)))
 (let (($x113317 (or $x1387 (<= (+ Q_4 ?x816 ?x900 L_4 L_0 (* 2.0 S_2)) 0.0) $x1777)))
 (let (($x41 (>= A_1 A_0)))
 (let (($x42 (>= A_2 A_1)))
 (let (($x43 (>= A_3 A_2)))
 (let (($x44 (>= A_4 A_3)))
 (and (<= ?x763 ?x754) $x44 $x43 $x42 $x41 (<= ?x714 ?x781) (<= ?x772 ?x763) (<= ?x781 ?x772) (or $x663 (not $x1777)) (or $x673 (<= (+ S_3 ?x763 ?x1862 L_3 A_0 ?x784) 0.0)) (or $x673 (not (<= ?x1470 0.0)) $x3036) $x113317 (or $x1777 $x2972 (<= 0.0 ?x3035)) $x6679 $x55814 $x54005 (or $x2066 $x2972 $x2982) $x45864 $x52939 (or $x1855 $x7990) (or $x1410 $x1855) (or $x663 (<= (+ ?x721 ?x763 ?x1862 A_0) 0.0)) $x8863 $x116969 (or $x663 $x3036 (<= (+ ?x816 ?x781 A_3 L_1 ?x766 A_2) 0.0)) $x52818 (or $x663 (<= (+ L_1 ?x721 ?x2967 ?x766 ?x2303 ?x3016 ?x3017) 0.0)) $x110979 $x46362 (or $x557 $x673 $x3026 $x3946) (or $x663 $x2982 $x8980) (or $x1855 $x13130) (or $x2332 $x7050 $x13132) $x53992 (or $x613 $x2066 $x2952 $x3036 $x7030) $x114873 $x112283 (or $x663 (= ?x8000 0.0) (not $x8010) $x8984 $x45302) $x57154 (or $x613 $x6141 $x13145) (or $x613 $x6141 $x6648) (or $x673 (<= (+ ?x721 A_4 A_2 L_2 ?x714 ?x1892) 0.0)) (or (not (<= (+ ?x721 A_4 A_2 L_2 ?x714 ?x1892) 0.0)) $x3954) (or $x673 $x3026 $x3946 $x13145) (or $x912 $x1461 $x45303) (or $x663 (<= (+ ?x721 ?x1401 ?x900 ?x1402 L_0 ?x1451 ?x1447) 0.0)) (or $x559 $x673 (<= (+ ?x721 A_4 ?x900 ?x714 L_0 ?x1890 ?x1892) 0.0)) $x55660 (or $x677 $x1469 $x2066 $x4692) $x54958 $x57373 (or $x663 $x2982 (<= (+ ?x1426 ?x2961 ?x816 ?x1993 L_4 ?x2417 ?x2416) 0.0)) (or $x613 $x1469 $x2066 $x3895) (or $x613 $x1469 $x2066 $x2982 $x4614) $x56026 $x55796 (or $x663 (<= (+ ?x721 ?x816 ?x775 L_2 L_4 ?x1995 ?x1994) 0.0)) (or $x613 $x2066 $x2952 $x3895) (or $x613 $x2066 $x6648 $x14549) (or $x677 $x2066 $x2952 $x4692) $x53195 (or $x613 $x1475 $x2066 $x7491 $x20319) $x52938 (or $x677 (<= (+ ?x721 A_4 L_3 ?x784 ?x714 A_1 ?x775) 0.0)) (or $x613 $x1475 $x2066 $x3042 $x7030 $x13145) (or $x613 $x2220 $x8017) $x55014 $x54169 $x57042 (or $x677 $x1461) (or $x677 $x1907) $x116641 (or $x559 $x663 $x1387 $x8984) (or $x557 $x673 $x10433) (or $x613 $x2066 $x3895 $x8017) (or $x613 $x6141 $x8010) (or $x677 $x23682) (or $x663 $x1475 $x3954 $x14244) $x113737 (or $x557 $x663 $x14647 $x45303) $x111986 $x55485 (or $x1855 (<= (+ ?x1406 (* (- 3.0) L_0) (* (- 3.0) S_2)) (- 15.0))) $x25914 $x55802 $x114855 $x111413 (or $x2332 $x25594) (or $x673 (<= (+ ?x900 L_0 S_2 ?x1891 ?x1427 ?x1428 ?x1892) 0.0)) (or $x673 (<= (+ L_1 ?x766 S_2 L_3 ?x772 A_2 ?x784) 0.0)) (or $x673 (<= (+ L_1 ?x766 S_3 ?x1891 ?x1427 ?x1428 ?x1892) 0.0)) (or $x613 $x2220 (<= (+ ?x3896 ?x3914 ?x2266 ?x3016 ?x21255 ?x2265 ?x3017) 0.0)) (or $x673 $x10433 (<= (+ ?x3906 ?x2244 (* 2.0 S_3) ?x2243 ?x2236) 0.0)) $x59995 (or $x613 $x1855 $x26318 $x29291) $x50105 $x112049 $x55577 (or $x673 $x45303) (or $x611 $x673 $x10433) (or $x537 $x673) $x50299 $x33840 $x111492 $x111889 (or (<= (+ ?x21324 ?x1890 ?x1862 L_2 L_0 ?x775) 0.0) $x27479 $x33904) $x54908 (or $x1838 (<= (+ (* (/ 1.0 2.0) L_1) ?x1857 ?x27565 S_2) 0.0)) (or $x673 $x14578) (or $x673 $x25633) $x113789 $x53901 (or $x673 (<= (+ ?x900 L_0 S_3 ?x2416 ?x2236) 0.0)) (or (not $x14578) $x14582) (or $x673 (<= (+ A_2 ?x772 L_3 ?x784) (- 5.0))) (or $x613 $x1855 $x8017 $x26924) $x50781 $x112741 (or $x673 (<= (+ ?x900 L_0 S_2 L_3 ?x763 A_1 ?x784) 0.0)) (or $x673 $x36691) (or $x23682 $x32100 (not $x36691)) $x52528 (or $x677 $x22382 (<= (+ ?x1816 ?x1840 ?x27565 L_2 ?x781 ?x775 A_3) 0.0)) (or $x677 $x8017 $x47525) (or $x677 $x10427 $x47525) $x53589 (or $x673 $x3034) (or $x677 (<= (+ ?x763 L_2 A_1 ?x775) (- 5.0))) (or $x677 (<= (+ ?x21324 A_1 S_3 ?x1414 ?x1416 ?x3914 ?x1417) 0.0) $x27357) $x52736 (or $x677 (<= (+ ?x900 L_0 S_1 ?x763 L_2 A_1 ?x775) 0.0)) (or $x677 $x6670 (not $x6948) $x7439) (or $x677 $x21238 $x50090) (or $x613 $x2332 $x23466 $x26375 $x29333) (or $x673 $x37123) (or $x23682 $x28149 (not $x37123)) (or $x613 $x633 $x10427 $x13572) (or $x613 $x673 $x2227 $x8017) (or $x613 $x1838 $x8017 $x34433) (or $x555 $x673 $x13572 $x51397) (or $x673 (not $x8017) $x48955 $x50090) (or $x673 $x13572 (not (<= (+ A_2 ?x772 A_0 ?x754 ?x1414) 0.0))) (or $x613 $x633 $x44910) (or $x611 $x673 $x45254) (or $x673 $x10427 $x45254 $x47525) (or $x673 (not $x1907) $x49653) (or $x677 $x49653) (or $x613 $x633 $x8017) (or $x613 $x633 $x48956) (or $x677 (<= (+ ?x900 L_0 S_2 ?x1415 ?x1416 ?x1890 ?x1417) 0.0)) (or $x677 (<= (+ ?x900 L_0 S_3 ?x21324 ?x2478 ?x2243 ?x2477) 0.0)) (or $x555 $x677 $x51397) $x115063 (or $x677 $x21238 $x44910) (or $x613 $x1838 $x24906 $x48956) (or $x677 $x7735 $x20330) $x115797 $x111318 (or $x48955 $x51408 $x51410 (<= (+ ?x25127 ?x25853 ?x38795 ?x38465) (- 5.0))) (or $x1838 $x24838) $x115892 (or $x50853 $x51397 $x51408 $x51410) (or $x49569 $x50853 $x51408 $x51410) (or $x673 $x2963 $x3937 $x18292) (or $x613 $x1838 $x21788 $x24906) (or $x613 $x1838 $x34433 $x48956) (or $x613 $x633 $x6670 (not $x14244)) (or $x537 $x613 $x633 $x10427) (or $x613 $x633 $x50090) $x1476 (<= (+ Q_4 ?x816 L_4 S_4) 0.0) (<= (+ ?x1862 S_0) 0.0) (<= (+ S_3 L_3 ?x784) 0.0) (<= (+ ?x775 L_2 S_2) 0.0) (<= (+ ?x1661 S_3) 0.0) (<= (+ S_0 L_0 ?x900) 0.0) (<= (+ L_1 ?x766 S_1) 0.0) (<= (+ (* (- 1.0) S_3) S_2) 0.0) (<= (+ (* (- 3.0) S_2) ?x23967) 0.0)))))))))))))))))))))))))))))))))))))))))))))))))))))))))))))))))))))))))))))))))))))))))))))))))))))))))))))))))))))))))))))))))))))))))))))))))))))))))))))))))))))))))))))))))))))))))))))))))))))))))))))))))))))))))))))))))))))))))))))))))))))))))))))))))))))))))))))))
(check-sat)
